units   metal
dimension 3
boundary    p s p
atom_style    atomic

variable latparam1 equal 3.52


variable xdim equal (${latparam1}*6/sqrt(6))*12
variable ydim equal (${latparam1}*3/sqrt(3))*30
variable zdim equal (${latparam1}*2/sqrt(2))*2

variable upy equal  (${latparam1}*3/sqrt(3))*15
variable upy2 equal  (${latparam1}*3/sqrt(3))*15-2.1
variable upy3 equal  (${latparam1}*3/sqrt(3))*15-4.2
variable upyfix equal  (${latparam1}*3/sqrt(3))*30-10
variable lowyfix equal  10

region		entirebox prism 0.0   ${xdim}     0.0    ${ydim}   0.0 ${zdim} 0 0 0 units box 
create_box      2 entirebox


#read_data 2.data

region		upper   prism    0 ${xdim}      ${upy}    ${ydim}   		0 ${zdim}  0 0 0 units box
region		lower   prism    0 ${xdim}      0.0          ${upy}		0 ${zdim}  0 0 0 units box
region		lower2   prism    0 ${xdim}      0.0          ${upy2}		0 ${zdim}  0 0 0 units box
region		lower3   prism    0 ${xdim}      0.0          ${upy3}		0 ${zdim}  0 0 0 units box

region		upperfix   prism    0 ${xdim}      ${upyfix}    ${ydim}   0 ${zdim}  0 0 0 units box
region		lowerfix   prism    0 ${xdim}      0.0    ${lowyfix}   0 ${zdim}  0 0 0 units box


region		middlefree   prism    0 ${xdim}      ${lowyfix}    ${upyfix}   0 ${zdim}  0 0 0 units box


lattice         fcc ${latparam1} orient x 1 1 -2 orient y 1 1 1 orient z 1 -1 0 origin 0.9 0.9 0.9

create_atoms    1 region upper 

lattice         fcc ${latparam1} orient x 1 1 -2 orient y 1 1 1 orient z 1 -1 0 origin 0.9 0.9 0.9

create_atoms    1 region lower 


#pair_style        eam/fs
#pair_coeff      * * niti_fr.eam.fs Ni Ti

pair_style        eam/alloy
pair_coeff      * * NiCo-lammps-2014.alloy Ni Co

#pair_style       meam/c
#pair_coeff       * * library.meam Ni Ti NiTi.meam Ni Ti

compute           pe  all pe/atom
compute           ke  all ke/atom

dump          cfgformat all cfg 50 runstep_*.cfg mass type xs ys zs c_pe c_ke
dump_modify   cfgformat element Ni Co

group 1 region entirebox
set group 1 type/fraction 2 0.2 12394


group top region upper
group bot region lower
group bot2 region lower2
group bot3 region lower3

group topfix region upperfix
group botfix region lowerfix
group midrelax region middlefree

#displace_atoms bot move -1.437 0.0 0.0 units box	
#displace_atoms bot2 move -1.437 0.0 0.0 units box
#displace_atoms bot3 move -1.437 0.0 0.0 units box

displace_atoms bot move -1.437 0.0 0.0 units box	
displace_atoms bot2 move -1.437 0.0 0.0 units box
displace_atoms bot3 move -1.437 0.0 0.0 units box

compute peratom all pe/atom
compute eatoms all reduce sum c_peratom

thermo 25
thermo_style custom step pe c_eatoms

#fix 1 all setforce 0 0 NULL


fix 2 topfix setforce 0 0 0
fix 3 botfix setforce 0 0 0
fix 4 midrelax setforce 0 NULL NULL

#timestep 0.001
#run 2


min_style cg
#minimize 1e-10 1e-10 1 1
minimize        1.0e-12 1.0e-12 100000 100000

#write_data        1.data

# SIMULATION DONE
#print ${x}
print "All done"


