units   metal
dimension 3
boundary    p p p
atom_style    atomic

variable latparam1 equal 3.529258


variable xdim equal (${latparam1}*6/sqrt(6))*20
variable ydim equal (${latparam1}*3/sqrt(3))*30
variable zdim equal (${latparam1}*2/sqrt(2))*2

variable upy equal  (${latparam1}*3/sqrt(3))*15

region		entirebox prism 0.0   ${xdim}     0.0    ${ydim}   0.0 ${zdim} 0 0 0 units box 
create_box      2 entirebox


region		upper   prism    0 ${xdim}      ${upy}    ${ydim}   0 ${zdim}  0 0 0 units box
region		lower   prism    0 ${xdim}      0.0    ${upy}   0 ${zdim}  0 0 0 units box


lattice         fcc ${latparam1} orient x 1 1 -2 orient y 1 1 1 orient z 1 -1 0 origin 0.9 0.9 0.9

create_atoms    1 region upper 

lattice         fcc ${latparam1} orient x 1 1 -2 orient y 1 1 1 orient z 1 -1 0 origin 0.9 0.9 0.9

create_atoms    1 region lower 


#pair_style        eam/fs
#pair_coeff      * * niti_fr.eam.fs Ni Ti

#pair_style       meam/c
#pair_coeff       * * library.meam Ni Ti NiTi.meam Ni Ti

pair_style        eam/alloy
pair_coeff      * * NiCo-lammps-2014.alloy Ni Co


group 1 region entirebox
set group 1 type/fraction 2 0.10 12394


write_data 1.data

## COMPUTES 
#==========

compute 		sigma all stress/atom NULL

compute		xx all reduce sum c_sigma[1]
compute		yy all reduce sum c_sigma[2]
compute		zz all reduce sum c_sigma[3]
compute 		xy all reduce sum c_sigma[4]
compute 		xz all reduce sum c_sigma[5]
compute 		yz all reduce sum c_sigma[6]

variable		stxx equal c_xx/(vol)
variable 		styy equal c_yy/(vol)
variable		stzz equal c_zz/(vol)
variable		stxy equal c_xy/(vol)
variable		stxz equal c_xz/(vol)
variable		styz equal c_yz/(vol)

variable        L equal  201.24

variable        strainyy equal (ly-v_L)/v_L



compute           pe  all pe/atom
compute           ke  all ke/atom
compute           csp all centro/atom fcc
compute 		peratom all stress/atom NULL


dump            cfgformat all cfg 500 runstep_*.cfg mass type xs ys zs c_csp c_pe c_ke c_peratom[1] c_peratom[2] c_peratom[3] c_peratom[4] c_peratom[5] c_peratom[6]
dump_modify     cfgformat  element Ni Ti

thermo		50
thermo_style custom step temp pe ke etotal vol press v_stxx v_styy v_stzz v_stxy v_stxz v_styz



fix 2 all atom/swap 1 100 29494 10 semi-grand no ke yes types 1 2
timestep 0.001
run 4000

unfix 2

write_data        2.data


